(set-logic HORN)
(declare-fun inv ((_ BitVec 64) (_ BitVec 64) (_ BitVec 64) ) Bool)
(assert (forall ((x1 (_ BitVec 64)) (x2 (_ BitVec 64)) (x3 (_ BitVec 64))) 
       (=> ( and ( = x1 (_ bv0 64) ) ( = x2 (_ bv0 64) ) ( = x3 (_ bv0 64) ) ) (inv x1 x2 x3))))
(assert (forall ((x1 (_ BitVec 64)) (x2 (_ BitVec 64)) (x3 (_ BitVec 64)) (x1! (_ BitVec 64)) (x2! (_ BitVec 64)) (x3! (_ BitVec 64))) 
       (=> (and (inv x1 x2 x3) ( and ( bvsle x1! x2! ) ( or ( bvsge x2! (_ bv0 64) ) ( bvsle ( bvsub x2! x3! ) (_ bv2 64) ) ) )) (inv x1! x2! x3!))))
(assert (forall ((x1 (_ BitVec 64)) (x2 (_ BitVec 64)) (x3 (_ BitVec 64))) 
       (=> (inv x1 x2 x3) ( and ( bvsle x1 x2 ) ( or ( bvsge x2 (_ bv0 64) ) ( bvsle ( bvsub x2 x3 ) (_ bv2 64) ) ) ))))
(check-sat)
